(set-info :source |printed by MathSAT|)
(declare-fun |.y{11}| () Int)
(declare-fun |.y{17}| () Int)
(declare-fun |.y{12}| () Int)
(declare-fun |.x{137}| () (Array Int Int))
(declare-fun |.y{19}| () (Array Int Int))
(declare-fun |.y{13}| () (Array Int Int))
(declare-fun |.y{20}| () (Array Int Int))
(declare-fun |.x{132}| () Int)
(declare-fun |.y{21}| () Int)
(declare-fun |.x{136}| () Int)
(declare-fun |.y{22}| () Int)
(declare-fun |.x{135}| () Int)
(declare-fun |.y{23}| () Int)
(declare-fun |.y{14}| () Int)
(declare-fun |.y{24}| () Int)
(declare-fun |.y{15}| () Int)
(declare-fun |.y{25}| () Int)
(declare-fun |.y{16}| () Int)
(declare-fun |.y{26}| () Int)
(declare-fun |.loc{3}| () Bool)
(declare-fun |.loc{5}| () Bool)
(declare-fun |.loc{4}| () Bool)
(declare-fun |.loc{6}| () Bool)
(declare-fun |.x{67}| () Bool)
(declare-fun |.x{62}| () Bool)
(declare-fun |.x{49}| () Int)
(declare-fun |.x{59}| () (Array Int Int))
(declare-fun |.x{51}| () (Array Int Int))
(declare-fun |.x{63}| () Int)
(declare-fun |.x{54}| () Int)
(declare-fun |.x{47}| () Bool)
(declare-fun |.x{65}| () (Array Int Int))
(declare-fun |.x{56}| () (Array Int Int))
(declare-fun |.x{50}| () Int)
(declare-fun |.x{48}| () Bool)
(declare-fun |.x{66}| () Int)
(declare-fun |.x{57}| () Int)
(declare-fun |.x{68}| () Int)
(declare-fun |.x{64}| () (Array Int Int))
(declare-fun |.x{61}| () Int)
(declare-fun |.x{60}| () (Array Int Int))
(declare-fun |.x{43}| () Bool)
(declare-fun |.x{138}| () Int)
(declare-fun |.x{46}| () Int)
(define-fun .def_28 () Bool (! |.loc{3}| :next |.loc{5}|))
(define-fun .def_232 () Bool (not .def_28))
(define-fun .def_30 () Bool (! |.loc{4}| :next |.loc{6}|))
(define-fun .def_32 () Bool (not .def_30))
(define-fun .def_301 () Bool (! (and .def_32 .def_232) :init true))
(define-fun .def_241 () Int (* (- 1) |.x{138}|))
(define-fun .def_20 () Int (! |.x{135}| :next |.y{23}|))
(define-fun .def_244 () Int (+ .def_20 .def_241))
(define-fun .def_18 () Int (! |.x{136}| :next |.y{22}|))
(define-fun .def_245 () Int (+ .def_18 .def_244))
(define-fun .def_246 () Bool (= .def_245 0))
(define-fun .def_289 () Bool (and .def_30 .def_246))
(define-fun .def_290 () Bool (and .def_232 .def_289))
(define-fun .def_16 () Int (! |.x{132}| :next |.y{21}|))
(define-fun .def_258 () Bool (<= .def_16 .def_20))
(define-fun .def_259 () Bool (not .def_258))
(define-fun .def_291 () Bool (and .def_259 .def_290))
(define-fun .def_265 () Bool (<= .def_18 0))
(define-fun .def_263 () Bool (<= |.x{138}| 0))
(define-fun .def_264 () Bool (not .def_263))
(define-fun .def_266 () Bool (or .def_264 .def_265))
(define-fun .def_292 () Bool (and .def_266 .def_291))
(define-fun .def_268 () Bool (not .def_265))
(define-fun .def_293 () Bool (and .def_268 .def_292))
(define-fun .def_12 () (Array Int Int) (! |.x{137}| :next |.y{19}|))
(define-fun .def_270 () Int (select .def_12 |.x{138}|))
(define-fun .def_271 () Bool (<= .def_270 (- 1)))
(define-fun .def_294 () Bool (and .def_271 .def_293))
(define-fun .def_295 () Bool (and |.loc{5}| .def_294))
(define-fun .def_287 () Bool (= |.y{22}| .def_20))
(define-fun .def_14 () (Array Int Int) (! |.y{13}| :next |.y{20}|))
(define-fun .def_284 () Bool (= |.y{19}| .def_14))
(define-fun .def_8 () Int (! |.y{11}| :next |.y{17}|))
(define-fun .def_26 () Int (! |.y{16}| :next |.y{26}|))
(define-fun .def_278 () Int (* 16777216 .def_26))
(define-fun .def_279 () Real (* (/ 1 16777216) (to_real .def_278)))
(define-fun .def_280 () Int (to_int .def_279))
(define-fun .def_281 () Bool (<= .def_280 .def_8))
(define-fun .def_275 () Bool (= |.y{23}| 0))
(define-fun .def_240 () Bool (not |.loc{5}|))
(define-fun .def_274 () Bool (and .def_32 .def_240))
(define-fun .def_276 () Bool (and .def_274 .def_275))
(define-fun .def_282 () Bool (and .def_276 .def_281))
(define-fun .def_283 () Bool (and .def_28 .def_282))
(define-fun .def_285 () Bool (and .def_283 .def_284))
(define-fun .def_254 () Bool (= .def_16 |.y{21}|))
(define-fun .def_286 () Bool (and .def_254 .def_285))
(define-fun .def_288 () Bool (and .def_286 .def_287))
(define-fun .def_296 () Bool (or .def_288 .def_295))
(define-fun .def_272 () Bool (not .def_271))
(define-fun .def_261 () Bool (= .def_18 |.y{22}|))
(define-fun .def_256 () Bool (= .def_12 |.y{19}|))
(define-fun .def_248 () Int (* (- 1) |.y{23}|))
(define-fun .def_249 () Int (+ .def_20 .def_248))
(define-fun .def_250 () Bool (= .def_249 (- 1)))
(define-fun .def_247 () Bool (and .def_240 .def_246))
(define-fun .def_251 () Bool (and .def_247 .def_250))
(define-fun .def_252 () Bool (and .def_30 .def_251))
(define-fun .def_253 () Bool (and .def_232 .def_252))
(define-fun .def_255 () Bool (and .def_253 .def_254))
(define-fun .def_257 () Bool (and .def_255 .def_256))
(define-fun .def_260 () Bool (and .def_257 .def_259))
(define-fun .def_262 () Bool (and .def_260 .def_261))
(define-fun .def_267 () Bool (and .def_262 .def_266))
(define-fun .def_269 () Bool (and .def_267 .def_268))
(define-fun .def_273 () Bool (and .def_269 .def_272))
(define-fun .def_297 () Bool (or .def_273 .def_296))
(define-fun .def_298 () Bool (and |.loc{6}| .def_297))
(define-fun .def_237 () Bool (= .def_8 |.y{25}|))
(define-fun .def_234 () Bool (<= |.y{24}| 0))
(define-fun .def_235 () Bool (not .def_234))
(define-fun .def_229 () Bool (<= |.y{23}| 0))
(define-fun .def_230 () Bool (not .def_229))
(define-fun .def_226 () Bool (<= |.y{26}| 0))
(define-fun .def_227 () Bool (not .def_226))
(define-fun .def_224 () Bool (= |.y{21}| 0))
(define-fun .def_222 () Bool (= |.y{17}| 0))
(define-fun .def_220 () Bool (= |.y{22}| 0))
(define-fun .def_198 () Bool (not |.loc{6}|))
(define-fun .def_219 () Bool (and .def_32 .def_198))
(define-fun .def_221 () Bool (and .def_219 .def_220))
(define-fun .def_223 () Bool (and .def_221 .def_222))
(define-fun .def_225 () Bool (and .def_223 .def_224))
(define-fun .def_228 () Bool (and .def_225 .def_227))
(define-fun .def_231 () Bool (and .def_228 .def_230))
(define-fun .def_233 () Bool (and .def_231 .def_232))
(define-fun .def_236 () Bool (and .def_233 .def_235))
(define-fun .def_238 () Bool (and .def_236 .def_237))
(define-fun .def_239 () Bool (and |.loc{5}| .def_238))
(define-fun .def_299 () Bool (or .def_239 .def_298))
(define-fun .def_216 () Bool (not |.x{48}|))
(define-fun .def_212 () Bool (and |.x{62}| |.x{47}|))
(define-fun .def_215 () Bool (not .def_212))
(define-fun .def_217 () Bool (or .def_215 .def_216))
(define-fun .def_54 () Bool (not |.x{62}|))
(define-fun .def_213 () Bool (or .def_54 .def_212))
(define-fun .def_207 () Int (* (- 1) |.x{54}|))
(define-fun .def_208 () Int (+ .def_18 .def_207))
(define-fun .def_209 () Bool (= .def_208 (- 1)))
(define-fun .def_210 () Bool (or .def_54 .def_209))
(define-fun .def_202 () (Array Int Int) (store .def_12 |.x{46}| |.x{50}|))
(define-fun .def_203 () Bool (= |.x{51}| .def_202))
(define-fun .def_204 () Bool (or .def_54 .def_203))
(define-fun .def_149 () Bool (and |.x{47}| |.x{43}|))
(define-fun .def_108 () Bool (not |.x{47}|))
(define-fun .def_200 () Bool (or .def_108 .def_149))
(define-fun .def_196 () Bool (= .def_26 |.y{26}|))
(define-fun .def_22 () Int (! |.y{14}| :next |.y{24}|))
(define-fun .def_185 () Bool (<= .def_22 0))
(define-fun .def_193 () Bool (not .def_185))
(define-fun .def_194 () Bool (or .def_54 .def_193))
(define-fun .def_24 () Int (! |.y{15}| :next |.y{25}|))
(define-fun .def_191 () Bool (= .def_24 |.y{25}|))
(define-fun .def_186 () Bool (<= |.x{46}| 0))
(define-fun .def_187 () Bool (not .def_186))
(define-fun .def_188 () Bool (or .def_185 .def_187))
(define-fun .def_189 () Bool (or .def_54 .def_188))
(define-fun .def_183 () Bool (= .def_22 |.y{24}|))
(define-fun .def_181 () Bool (= .def_20 |.y{23}|))
(define-fun .def_175 () Int (* (- 1) |.x{46}|))
(define-fun .def_176 () Int (+ .def_22 .def_175))
(define-fun .def_177 () Int (+ .def_18 .def_176))
(define-fun .def_178 () Bool (= .def_177 0))
(define-fun .def_179 () Bool (or .def_54 .def_178))
(define-fun .def_167 () Bool (= |.y{22}| |.x{68}|))
(define-fun .def_48 () Bool (not |.x{67}|))
(define-fun .def_168 () Bool (or .def_48 .def_167))
(define-fun .def_164 () Bool (= |.y{21}| |.x{66}|))
(define-fun .def_165 () Bool (or .def_48 .def_164))
(define-fun .def_160 () Bool (= |.y{20}| |.x{65}|))
(define-fun .def_161 () Bool (or .def_48 .def_160))
(define-fun .def_157 () Bool (= .def_24 |.x{138}|))
(define-fun .def_158 () Bool (or .def_108 .def_157))
(define-fun .def_153 () Bool (= |.y{19}| |.x{64}|))
(define-fun .def_154 () Bool (or .def_48 .def_153))
(define-fun .def_150 () Bool (not .def_149))
(define-fun .def_141 () Int (* (- 16777216) .def_26))
(define-fun .def_142 () Int (* (- 1) .def_141))
(define-fun .def_144 () Real (* (/ 1 16777216) (to_real .def_142)))
(define-fun .def_145 () Int (to_int .def_144))
(define-fun .def_146 () Bool (<= .def_145 .def_8))
(define-fun .def_147 () Bool (not .def_146))
(define-fun .def_151 () Bool (or .def_147 .def_150))
(define-fun .def_137 () Bool (= |.y{22}| |.x{63}|))
(define-fun .def_138 () Bool (or .def_54 .def_137))
(define-fun .def_134 () Bool (= |.y{21}| |.x{61}|))
(define-fun .def_135 () Bool (or .def_54 .def_134))
(define-fun .def_131 () Bool (= |.y{20}| |.x{60}|))
(define-fun .def_132 () Bool (or .def_54 .def_131))
(define-fun .def_128 () Bool (= .def_14 |.x{60}|))
(define-fun .def_129 () Bool (or .def_54 .def_128))
(define-fun .def_124 () Bool (= .def_16 |.x{61}|))
(define-fun .def_125 () Bool (or .def_54 .def_124))
(define-fun .def_119 () Bool (= .def_12 |.x{64}|))
(define-fun .def_120 () Bool (or .def_48 .def_119))
(define-fun .def_115 () Bool (= .def_18 |.x{68}|))
(define-fun .def_116 () Bool (or .def_48 .def_115))
(define-fun .def_109 () Bool (<= |.x{50}| (- 1)))
(define-fun .def_110 () Bool (not .def_109))
(define-fun .def_111 () Bool (= |.x{48}| .def_110))
(define-fun .def_112 () Bool (or .def_108 .def_111))
(define-fun .def_105 () Bool (= |.y{19}| |.x{59}|))
(define-fun .def_106 () Bool (or .def_54 .def_105))
(define-fun .def_101 () Int (* (- 1) |.y{17}|))
(define-fun .def_102 () Int (+ .def_8 .def_101))
(define-fun .def_103 () Bool (= .def_102 (- 1)))
(define-fun .def_96 () Int (* (- 1) |.x{57}|))
(define-fun .def_97 () Int (+ .def_16 .def_96))
(define-fun .def_98 () Bool (= .def_97 (- 1)))
(define-fun .def_99 () Bool (or .def_48 .def_98))
(define-fun .def_91 () Bool (= |.x{66}| |.x{57}|))
(define-fun .def_92 () Bool (or .def_48 .def_91))
(define-fun .def_72 () Bool (and |.x{67}| |.x{47}|))
(define-fun .def_85 () Bool (not .def_72))
(define-fun .def_87 () Bool (or .def_85 |.x{48}|))
(define-fun .def_81 () (Array Int Int) (store .def_14 |.x{49}| |.x{50}|))
(define-fun .def_82 () Bool (= |.x{56}| .def_81))
(define-fun .def_83 () Bool (or .def_48 .def_82))
(define-fun .def_77 () Bool (= |.x{65}| |.x{56}|))
(define-fun .def_78 () Bool (or .def_48 .def_77))
(define-fun .def_73 () Bool (or .def_48 .def_72))
(define-fun .def_57 () Bool (<= .def_20 0))
(define-fun .def_68 () Bool (not .def_57))
(define-fun .def_69 () Bool (or .def_48 .def_68))
(define-fun .def_65 () Bool (= |.x{63}| |.x{54}|))
(define-fun .def_66 () Bool (or .def_54 .def_65))
(define-fun .def_58 () Bool (<= |.x{49}| 0))
(define-fun .def_59 () Bool (not .def_58))
(define-fun .def_60 () Bool (or .def_57 .def_59))
(define-fun .def_61 () Bool (or .def_48 .def_60))
(define-fun .def_53 () Bool (= |.x{59}| |.x{51}|))
(define-fun .def_55 () Bool (or .def_53 .def_54))
(define-fun .def_44 () Int (* (- 1) |.x{49}|))
(define-fun .def_45 () Int (+ .def_20 .def_44))
(define-fun .def_46 () Int (+ .def_16 .def_45))
(define-fun .def_47 () Bool (= .def_46 0))
(define-fun .def_49 () Bool (or .def_47 .def_48))
(define-fun .def_35 () Bool (or |.x{67}| |.x{62}|))
(define-fun .def_36 () Bool (and .def_32 .def_35))
(define-fun .def_50 () Bool (and .def_36 .def_49))
(define-fun .def_56 () Bool (and .def_50 .def_55))
(define-fun .def_62 () Bool (and .def_56 .def_61))
(define-fun .def_67 () Bool (and .def_62 .def_66))
(define-fun .def_70 () Bool (and .def_67 .def_69))
(define-fun .def_74 () Bool (and .def_70 .def_73))
(define-fun .def_79 () Bool (and .def_74 .def_78))
(define-fun .def_84 () Bool (and .def_79 .def_83))
(define-fun .def_88 () Bool (and .def_84 .def_87))
(define-fun .def_93 () Bool (and .def_88 .def_92))
(define-fun .def_100 () Bool (and .def_93 .def_99))
(define-fun .def_104 () Bool (and .def_100 .def_103))
(define-fun .def_107 () Bool (and .def_104 .def_106))
(define-fun .def_113 () Bool (and .def_107 .def_112))
(define-fun .def_117 () Bool (and .def_113 .def_116))
(define-fun .def_121 () Bool (and .def_117 .def_120))
(define-fun .def_122 () Bool (and .def_28 .def_121))
(define-fun .def_126 () Bool (and .def_122 .def_125))
(define-fun .def_130 () Bool (and .def_126 .def_129))
(define-fun .def_133 () Bool (and .def_130 .def_132))
(define-fun .def_136 () Bool (and .def_133 .def_135))
(define-fun .def_139 () Bool (and .def_136 .def_138))
(define-fun .def_152 () Bool (and .def_139 .def_151))
(define-fun .def_155 () Bool (and .def_152 .def_154))
(define-fun .def_159 () Bool (and .def_155 .def_158))
(define-fun .def_162 () Bool (and .def_159 .def_161))
(define-fun .def_163 () Bool (and |.loc{5}| .def_162))
(define-fun .def_166 () Bool (and .def_163 .def_165))
(define-fun .def_169 () Bool (and .def_166 .def_168))
(define-fun .def_180 () Bool (and .def_169 .def_179))
(define-fun .def_182 () Bool (and .def_180 .def_181))
(define-fun .def_184 () Bool (and .def_182 .def_183))
(define-fun .def_190 () Bool (and .def_184 .def_189))
(define-fun .def_192 () Bool (and .def_190 .def_191))
(define-fun .def_195 () Bool (and .def_192 .def_194))
(define-fun .def_197 () Bool (and .def_195 .def_196))
(define-fun .def_199 () Bool (and .def_197 .def_198))
(define-fun .def_201 () Bool (and .def_199 .def_200))
(define-fun .def_205 () Bool (and .def_201 .def_204))
(define-fun .def_211 () Bool (and .def_205 .def_210))
(define-fun .def_214 () Bool (and .def_211 .def_213))
(define-fun .def_218 () Bool (and .def_214 .def_217))
(define-fun .def_300 () Bool (! (or .def_218 .def_299) :trans true))
(define-fun .def_10 () Int (! |.y{12}| :next |.y{18}|))
(define-fun .def_302 () Bool (and .def_28 .def_30))
(define-fun .def_303 () Bool (! (not .def_302) :invar-property 0))
(assert true)
